175483
787365
600254
367951
287842
692782
885832
511355
664092
332794
879420
467229
543017
836325
877949
45651
459179
969398
832217
62069
790595
367902
652223
450394
680344
346446
521230
173060
624566
473074
472136
335401
49874
17741
900581
535070
757868
673842
423620
507234
402829
191132
556156
204741
64688
634091
937361
926067
820349
172540
520259
246561
751216
261091
701376
90771
850521
791687
709817
8519
363900
450267
590609
185282
407512
176821
483506
497588
154181
128780
876922
650186
245558
216083
730515
950289
49886
18412
65697
808130
990320
41547
845652
203182
573054
360360
977885
809735
262979
584992
917053
556552
512700
462313
957304
478210
648368
14448
547049
975300
